p cnf 765 1868
1 0
17 -18 0
-17 18 0
19 -20 0
-19 20 0
16 -17 0
16 -19 0
-16 17 19 0
21 -22 0
-21 22 0
15 -16 0
15 -21 0
-15 16 21 0
-24 16 0
24 -16 0
25 22 0
-25 -22 0
23 -24 0
23 -25 0
-23 24 25 0
-14 15 0
-14 23 0
14 -15 -23 0
28 -18 0
-28 18 0
29 20 0
-29 -20 0
27 -28 0
27 -29 0
-27 28 29 0
30 -22 0
-30 22 0
26 -27 0
26 -30 0
-26 27 30 0
-13 14 0
-13 26 0
13 -14 -26 0
-32 27 0
32 -27 0
33 22 0
-33 -22 0
31 -32 0
31 -33 0
-31 32 33 0
-12 13 0
-12 31 0
12 -13 -31 0
36 18 0
-36 -18 0
37 -20 0
-37 20 0
35 -36 0
35 -37 0
-35 36 37 0
38 -22 0
-38 22 0
34 -35 0
34 -38 0
-34 35 38 0
-11 12 0
-11 34 0
11 -12 -34 0
-40 35 0
40 -35 0
41 22 0
-41 -22 0
39 -40 0
39 -41 0
-39 40 41 0
-10 11 0
-10 39 0
10 -11 -39 0
44 18 0
-44 -18 0
45 20 0
-45 -20 0
43 -44 0
43 -45 0
-43 44 45 0
46 -22 0
-46 22 0
42 -43 0
42 -46 0
-42 43 46 0
-9 10 0
-9 42 0
9 -10 -42 0
-47 42 0
47 -42 0
-8 9 0
-8 47 0
8 -9 -47 0
58 -59 0
-58 59 0
60 -61 0
-60 61 0
57 -58 0
57 -60 0
-57 58 60 0
62 -63 0
-62 63 0
56 -57 0
56 -62 0
-56 57 62 0
-65 57 0
65 -57 0
66 63 0
-66 -63 0
64 -65 0
64 -66 0
-64 65 66 0
-55 56 0
-55 64 0
55 -56 -64 0
69 -59 0
-69 59 0
70 61 0
-70 -61 0
68 -69 0
68 -70 0
-68 69 70 0
71 -63 0
-71 63 0
67 -68 0
67 -71 0
-67 68 71 0
-54 55 0
-54 67 0
54 -55 -67 0
-73 68 0
73 -68 0
74 63 0
-74 -63 0
72 -73 0
72 -74 0
-72 73 74 0
-53 54 0
-53 72 0
53 -54 -72 0
77 59 0
-77 -59 0
78 -61 0
-78 61 0
76 -77 0
76 -78 0
-76 77 78 0
79 -63 0
-79 63 0
75 -76 0
75 -79 0
-75 76 79 0
-52 53 0
-52 75 0
52 -53 -75 0
-81 76 0
81 -76 0
82 63 0
-82 -63 0
80 -81 0
80 -82 0
-80 81 82 0
-51 52 0
-51 80 0
51 -52 -80 0
85 59 0
-85 -59 0
86 61 0
-86 -61 0
84 -85 0
84 -86 0
-84 85 86 0
87 -63 0
-87 63 0
83 -84 0
83 -87 0
-83 84 87 0
-50 51 0
-50 83 0
50 -51 -83 0
-88 83 0
88 -83 0
-49 50 0
-49 88 0
49 -50 -88 0
-89 42 0
89 -42 0
-48 49 0
-48 89 0
48 -49 -89 0
7 -8 0
7 -48 0
-7 8 48 0
100 -101 0
-100 101 0
102 -103 0
-102 103 0
99 -100 0
99 -102 0
-99 100 102 0
104 -105 0
-104 105 0
98 -99 0
98 -104 0
-98 99 104 0
-107 99 0
107 -99 0
108 105 0
-108 -105 0
106 -107 0
106 -108 0
-106 107 108 0
-97 98 0
-97 106 0
97 -98 -106 0
111 -101 0
-111 101 0
112 103 0
-112 -103 0
110 -111 0
110 -112 0
-110 111 112 0
113 -105 0
-113 105 0
109 -110 0
109 -113 0
-109 110 113 0
-96 97 0
-96 109 0
96 -97 -109 0
-115 110 0
115 -110 0
116 105 0
-116 -105 0
114 -115 0
114 -116 0
-114 115 116 0
-95 96 0
-95 114 0
95 -96 -114 0
119 101 0
-119 -101 0
120 -103 0
-120 103 0
118 -119 0
118 -120 0
-118 119 120 0
121 -105 0
-121 105 0
117 -118 0
117 -121 0
-117 118 121 0
-94 95 0
-94 117 0
94 -95 -117 0
-123 118 0
123 -118 0
124 105 0
-124 -105 0
122 -123 0
122 -124 0
-122 123 124 0
-93 94 0
-93 122 0
93 -94 -122 0
127 101 0
-127 -101 0
128 103 0
-128 -103 0
126 -127 0
126 -128 0
-126 127 128 0
129 -105 0
-129 105 0
125 -126 0
125 -129 0
-125 126 129 0
-92 93 0
-92 125 0
92 -93 -125 0
-130 125 0
130 -125 0
-91 92 0
-91 130 0
91 -92 -130 0
-132 42 0
132 -42 0
-133 83 0
133 -83 0
-131 132 0
-131 133 0
131 -132 -133 0
-90 91 0
-90 131 0
90 -91 -131 0
6 -7 0
6 -90 0
-6 7 90 0
144 -145 0
-144 145 0
146 -147 0
-146 147 0
143 -144 0
143 -146 0
-143 144 146 0
148 -149 0
-148 149 0
142 -143 0
142 -148 0
-142 143 148 0
-151 143 0
151 -143 0
152 149 0
-152 -149 0
150 -151 0
150 -152 0
-150 151 152 0
-141 142 0
-141 150 0
141 -142 -150 0
155 -145 0
-155 145 0
156 147 0
-156 -147 0
154 -155 0
154 -156 0
-154 155 156 0
157 -149 0
-157 149 0
153 -154 0
153 -157 0
-153 154 157 0
-140 141 0
-140 153 0
140 -141 -153 0
-159 154 0
159 -154 0
160 149 0
-160 -149 0
158 -159 0
158 -160 0
-158 159 160 0
-139 140 0
-139 158 0
139 -140 -158 0
163 145 0
-163 -145 0
164 -147 0
-164 147 0
162 -163 0
162 -164 0
-162 163 164 0
165 -149 0
-165 149 0
161 -162 0
161 -165 0
-161 162 165 0
-138 139 0
-138 161 0
138 -139 -161 0
-167 162 0
167 -162 0
168 149 0
-168 -149 0
166 -167 0
166 -168 0
-166 167 168 0
-137 138 0
-137 166 0
137 -138 -166 0
171 145 0
-171 -145 0
172 147 0
-172 -147 0
170 -171 0
170 -172 0
-170 171 172 0
173 -149 0
-173 149 0
169 -170 0
169 -173 0
-169 170 173 0
-136 137 0
-136 169 0
136 -137 -169 0
-174 169 0
174 -169 0
-135 136 0
-135 174 0
135 -136 -174 0
-176 131 0
176 -131 0
-177 125 0
177 -125 0
-175 176 0
-175 177 0
175 -176 -177 0
-134 135 0
-134 175 0
134 -135 -175 0
5 -6 0
5 -134 0
-5 6 134 0
188 -189 0
-188 189 0
190 -191 0
-190 191 0
187 -188 0
187 -190 0
-187 188 190 0
192 -193 0
-192 193 0
186 -187 0
186 -192 0
-186 187 192 0
-195 187 0
195 -187 0
196 193 0
-196 -193 0
194 -195 0
194 -196 0
-194 195 196 0
-185 186 0
-185 194 0
185 -186 -194 0
199 -189 0
-199 189 0
200 191 0
-200 -191 0
198 -199 0
198 -200 0
-198 199 200 0
201 -193 0
-201 193 0
197 -198 0
197 -201 0
-197 198 201 0
-184 185 0
-184 197 0
184 -185 -197 0
-203 198 0
203 -198 0
204 193 0
-204 -193 0
202 -203 0
202 -204 0
-202 203 204 0
-183 184 0
-183 202 0
183 -184 -202 0
207 189 0
-207 -189 0
208 -191 0
-208 191 0
206 -207 0
206 -208 0
-206 207 208 0
209 -193 0
-209 193 0
205 -206 0
205 -209 0
-205 206 209 0
-182 183 0
-182 205 0
182 -183 -205 0
-211 206 0
211 -206 0
212 193 0
-212 -193 0
210 -211 0
210 -212 0
-210 211 212 0
-181 182 0
-181 210 0
181 -182 -210 0
215 189 0
-215 -189 0
216 191 0
-216 -191 0
214 -215 0
214 -216 0
-214 215 216 0
217 -193 0
-217 193 0
213 -214 0
213 -217 0
-213 214 217 0
-180 181 0
-180 213 0
180 -181 -213 0
-218 213 0
218 -213 0
-179 180 0
-179 218 0
179 -180 -218 0
-220 175 0
220 -175 0
-221 169 0
221 -169 0
-219 220 0
-219 221 0
219 -220 -221 0
-178 179 0
-178 219 0
178 -179 -219 0
4 -5 0
4 -178 0
-4 5 178 0
232 -233 0
-232 233 0
234 -235 0
-234 235 0
231 -232 0
231 -234 0
-231 232 234 0
236 -237 0
-236 237 0
230 -231 0
230 -236 0
-230 231 236 0
-239 231 0
239 -231 0
240 237 0
-240 -237 0
238 -239 0
238 -240 0
-238 239 240 0
-229 230 0
-229 238 0
229 -230 -238 0
243 -233 0
-243 233 0
244 235 0
-244 -235 0
242 -243 0
242 -244 0
-242 243 244 0
245 -237 0
-245 237 0
241 -242 0
241 -245 0
-241 242 245 0
-228 229 0
-228 241 0
228 -229 -241 0
-247 242 0
247 -242 0
248 237 0
-248 -237 0
246 -247 0
246 -248 0
-246 247 248 0
-227 228 0
-227 246 0
227 -228 -246 0
251 233 0
-251 -233 0
252 -235 0
-252 235 0
250 -251 0
250 -252 0
-250 251 252 0
253 -237 0
-253 237 0
249 -250 0
249 -253 0
-249 250 253 0
-226 227 0
-226 249 0
226 -227 -249 0
-255 250 0
255 -250 0
256 237 0
-256 -237 0
254 -255 0
254 -256 0
-254 255 256 0
-225 226 0
-225 254 0
225 -226 -254 0
259 233 0
-259 -233 0
260 235 0
-260 -235 0
258 -259 0
258 -260 0
-258 259 260 0
261 -237 0
-261 237 0
257 -258 0
257 -261 0
-257 258 261 0
-224 225 0
-224 257 0
224 -225 -257 0
-262 257 0
262 -257 0
-223 224 0
-223 262 0
223 -224 -262 0
-264 219 0
264 -219 0
-265 213 0
265 -213 0
-263 264 0
-263 265 0
263 -264 -265 0
-222 223 0
-222 263 0
222 -223 -263 0
3 -4 0
3 -222 0
-3 4 222 0
-274 263 0
274 -263 0
-275 257 0
275 -257 0
-273 274 0
-273 275 0
273 -274 -275 0
-276 3 0
276 -3 0
272 -273 0
272 -276 0
-272 273 276 0
287 -233 0
-287 233 0
288 235 0
-288 -235 0
-286 287 0
-286 288 0
286 -287 -288 0
289 -237 0
-289 237 0
-285 286 0
-285 289 0
285 -286 -289 0
292 -18 0
-292 18 0
293 20 0
-293 -20 0
-291 292 0
-291 293 0
291 -292 -293 0
294 22 0
-294 -22 0
-290 291 0
-290 294 0
290 -291 -294 0
-284 285 0
-284 290 0
284 -285 -290 0
-297 286 0
297 -286 0
298 237 0
-298 -237 0
-296 297 0
-296 298 0
296 -297 -298 0
-300 291 0
300 -291 0
301 -22 0
-301 22 0
-299 300 0
-299 301 0
299 -300 -301 0
-295 296 0
-295 299 0
295 -296 -299 0
283 -284 0
283 -295 0
-283 284 295 0
-303 296 0
303 -296 0
306 -18 0
-306 18 0
307 -20 0
-307 20 0
-305 306 0
-305 307 0
305 -306 -307 0
308 22 0
-308 -22 0
-304 305 0
-304 308 0
304 -305 -308 0
-302 303 0
-302 304 0
302 -303 -304 0
282 -283 0
282 -302 0
-282 283 302 0
312 233 0
-312 -233 0
313 -235 0
-313 235 0
-311 312 0
-311 313 0
311 -312 -313 0
314 -237 0
-314 237 0
-310 311 0
-310 314 0
310 -311 -314 0
-315 290 0
315 -290 0
-309 310 0
-309 315 0
309 -310 -315 0
281 -282 0
281 -309 0
-281 282 309 0
-318 311 0
318 -311 0
319 237 0
-319 -237 0
-317 318 0
-317 319 0
317 -318 -319 0
322 18 0
-322 -18 0
323 -20 0
-323 20 0
-321 322 0
-321 323 0
321 -322 -323 0
324 -22 0
-324 22 0
-320 321 0
-320 324 0
320 -321 -324 0
-316 317 0
-316 320 0
316 -317 -320 0
280 -281 0
280 -316 0
-280 281 316 0
328 -233 0
-328 233 0
329 -235 0
-329 235 0
-327 328 0
-327 329 0
327 -328 -329 0
330 237 0
-330 -237 0
-326 327 0
-326 330 0
326 -327 -330 0
333 18 0
-333 -18 0
334 20 0
-334 -20 0
-332 333 0
-332 334 0
332 -333 -334 0
335 -22 0
-335 22 0
-331 332 0
-331 335 0
331 -332 -335 0
-325 326 0
-325 331 0
325 -326 -331 0
279 -280 0
279 -325 0
-279 280 325 0
339 233 0
-339 -233 0
340 235 0
-340 -235 0
-338 339 0
-338 340 0
338 -339 -340 0
341 -237 0
-341 237 0
-337 338 0
-337 341 0
337 -338 -341 0
-343 321 0
343 -321 0
344 22 0
-344 -22 0
-342 343 0
-342 344 0
342 -343 -344 0
-336 337 0
-336 342 0
336 -337 -342 0
278 -279 0
278 -336 0
-278 279 336 0
-347 338 0
347 -338 0
348 237 0
-348 -237 0
-346 347 0
-346 348 0
346 -347 -348 0
-349 331 0
349 -331 0
-345 346 0
-345 349 0
345 -346 -349 0
277 -278 0
277 -345 0
-277 278 345 0
-271 272 0
-271 277 0
271 -272 -277 0
-351 272 0
351 -272 0
-360 285 0
360 -285 0
363 -59 0
-363 59 0
364 61 0
-364 -61 0
-362 363 0
-362 364 0
362 -363 -364 0
365 63 0
-365 -63 0
-361 362 0
-361 365 0
361 -362 -365 0
-359 360 0
-359 361 0
359 -360 -361 0
-367 296 0
367 -296 0
-369 362 0
369 -362 0
370 -63 0
-370 63 0
-368 369 0
-368 370 0
368 -369 -370 0
-366 367 0
-366 368 0
366 -367 -368 0
358 -359 0
358 -366 0
-358 359 366 0
-372 296 0
372 -296 0
375 -59 0
-375 59 0
376 -61 0
-376 61 0
-374 375 0
-374 376 0
374 -375 -376 0
377 63 0
-377 -63 0
-373 374 0
-373 377 0
373 -374 -377 0
-371 372 0
-371 373 0
371 -372 -373 0
357 -358 0
357 -371 0
-357 358 371 0
-379 310 0
379 -310 0
-380 361 0
380 -361 0
-378 379 0
-378 380 0
378 -379 -380 0
356 -357 0
356 -378 0
-356 357 378 0
-382 317 0
382 -317 0
385 59 0
-385 -59 0
386 -61 0
-386 61 0
-384 385 0
-384 386 0
384 -385 -386 0
387 -63 0
-387 63 0
-383 384 0
-383 387 0
383 -384 -387 0
-381 382 0
-381 383 0
381 -382 -383 0
355 -356 0
355 -381 0
-355 356 381 0
-389 326 0
389 -326 0
392 59 0
-392 -59 0
393 61 0
-393 -61 0
-391 392 0
-391 393 0
391 -392 -393 0
394 -63 0
-394 63 0
-390 391 0
-390 394 0
390 -391 -394 0
-388 389 0
-388 390 0
388 -389 -390 0
354 -355 0
354 -388 0
-354 355 388 0
-396 337 0
396 -337 0
-398 384 0
398 -384 0
399 63 0
-399 -63 0
-397 398 0
-397 399 0
397 -398 -399 0
-395 396 0
-395 397 0
395 -396 -397 0
353 -354 0
353 -395 0
-353 354 395 0
-401 346 0
401 -346 0
-402 390 0
402 -390 0
-400 401 0
-400 402 0
400 -401 -402 0
352 -353 0
352 -400 0
-352 353 400 0
-350 351 0
-350 352 0
350 -351 -352 0
270 -271 0
270 -350 0
-270 271 350 0
-404 272 0
404 -272 0
-413 285 0
413 -285 0
416 -101 0
-416 101 0
417 103 0
-417 -103 0
-415 416 0
-415 417 0
415 -416 -417 0
418 105 0
-418 -105 0
-414 415 0
-414 418 0
414 -415 -418 0
-412 413 0
-412 414 0
412 -413 -414 0
-420 296 0
420 -296 0
-422 415 0
422 -415 0
423 -105 0
-423 105 0
-421 422 0
-421 423 0
421 -422 -423 0
-419 420 0
-419 421 0
419 -420 -421 0
411 -412 0
411 -419 0
-411 412 419 0
-425 296 0
425 -296 0
428 -101 0
-428 101 0
429 -103 0
-429 103 0
-427 428 0
-427 429 0
427 -428 -429 0
430 105 0
-430 -105 0
-426 427 0
-426 430 0
426 -427 -430 0
-424 425 0
-424 426 0
424 -425 -426 0
410 -411 0
410 -424 0
-410 411 424 0
-432 310 0
432 -310 0
-433 414 0
433 -414 0
-431 432 0
-431 433 0
431 -432 -433 0
409 -410 0
409 -431 0
-409 410 431 0
-435 317 0
435 -317 0
438 101 0
-438 -101 0
439 -103 0
-439 103 0
-437 438 0
-437 439 0
437 -438 -439 0
440 -105 0
-440 105 0
-436 437 0
-436 440 0
436 -437 -440 0
-434 435 0
-434 436 0
434 -435 -436 0
408 -409 0
408 -434 0
-408 409 434 0
-442 326 0
442 -326 0
445 101 0
-445 -101 0
446 103 0
-446 -103 0
-444 445 0
-444 446 0
444 -445 -446 0
447 -105 0
-447 105 0
-443 444 0
-443 447 0
443 -444 -447 0
-441 442 0
-441 443 0
441 -442 -443 0
407 -408 0
407 -441 0
-407 408 441 0
-449 337 0
449 -337 0
-451 437 0
451 -437 0
452 105 0
-452 -105 0
-450 451 0
-450 452 0
450 -451 -452 0
-448 449 0
-448 450 0
448 -449 -450 0
406 -407 0
406 -448 0
-406 407 448 0
-454 346 0
454 -346 0
-455 443 0
455 -443 0
-453 454 0
-453 455 0
453 -454 -455 0
405 -406 0
405 -453 0
-405 406 453 0
-403 404 0
-403 405 0
403 -404 -405 0
269 -270 0
269 -403 0
-269 270 403 0
-457 272 0
457 -272 0
-466 285 0
466 -285 0
469 -145 0
-469 145 0
470 147 0
-470 -147 0
-468 469 0
-468 470 0
468 -469 -470 0
471 149 0
-471 -149 0
-467 468 0
-467 471 0
467 -468 -471 0
-465 466 0
-465 467 0
465 -466 -467 0
-473 296 0
473 -296 0
-475 468 0
475 -468 0
476 -149 0
-476 149 0
-474 475 0
-474 476 0
474 -475 -476 0
-472 473 0
-472 474 0
472 -473 -474 0
464 -465 0
464 -472 0
-464 465 472 0
-478 296 0
478 -296 0
481 -145 0
-481 145 0
482 -147 0
-482 147 0
-480 481 0
-480 482 0
480 -481 -482 0
483 149 0
-483 -149 0
-479 480 0
-479 483 0
479 -480 -483 0
-477 478 0
-477 479 0
477 -478 -479 0
463 -464 0
463 -477 0
-463 464 477 0
-485 310 0
485 -310 0
-486 467 0
486 -467 0
-484 485 0
-484 486 0
484 -485 -486 0
462 -463 0
462 -484 0
-462 463 484 0
-488 317 0
488 -317 0
491 145 0
-491 -145 0
492 -147 0
-492 147 0
-490 491 0
-490 492 0
490 -491 -492 0
493 -149 0
-493 149 0
-489 490 0
-489 493 0
489 -490 -493 0
-487 488 0
-487 489 0
487 -488 -489 0
461 -462 0
461 -487 0
-461 462 487 0
-495 326 0
495 -326 0
498 145 0
-498 -145 0
499 147 0
-499 -147 0
-497 498 0
-497 499 0
497 -498 -499 0
500 -149 0
-500 149 0
-496 497 0
-496 500 0
496 -497 -500 0
-494 495 0
-494 496 0
494 -495 -496 0
460 -461 0
460 -494 0
-460 461 494 0
-502 337 0
502 -337 0
-504 490 0
504 -490 0
505 149 0
-505 -149 0
-503 504 0
-503 505 0
503 -504 -505 0
-501 502 0
-501 503 0
501 -502 -503 0
459 -460 0
459 -501 0
-459 460 501 0
-507 346 0
507 -346 0
-508 496 0
508 -496 0
-506 507 0
-506 508 0
506 -507 -508 0
458 -459 0
458 -506 0
-458 459 506 0
-456 457 0
-456 458 0
456 -457 -458 0
268 -269 0
268 -456 0
-268 269 456 0
-510 272 0
510 -272 0
-519 285 0
519 -285 0
522 -189 0
-522 189 0
523 191 0
-523 -191 0
-521 522 0
-521 523 0
521 -522 -523 0
524 193 0
-524 -193 0
-520 521 0
-520 524 0
520 -521 -524 0
-518 519 0
-518 520 0
518 -519 -520 0
-526 296 0
526 -296 0
-528 521 0
528 -521 0
529 -193 0
-529 193 0
-527 528 0
-527 529 0
527 -528 -529 0
-525 526 0
-525 527 0
525 -526 -527 0
517 -518 0
517 -525 0
-517 518 525 0
-531 296 0
531 -296 0
534 -189 0
-534 189 0
535 -191 0
-535 191 0
-533 534 0
-533 535 0
533 -534 -535 0
536 193 0
-536 -193 0
-532 533 0
-532 536 0
532 -533 -536 0
-530 531 0
-530 532 0
530 -531 -532 0
516 -517 0
516 -530 0
-516 517 530 0
-538 310 0
538 -310 0
-539 520 0
539 -520 0
-537 538 0
-537 539 0
537 -538 -539 0
515 -516 0
515 -537 0
-515 516 537 0
-541 317 0
541 -317 0
544 189 0
-544 -189 0
545 -191 0
-545 191 0
-543 544 0
-543 545 0
543 -544 -545 0
546 -193 0
-546 193 0
-542 543 0
-542 546 0
542 -543 -546 0
-540 541 0
-540 542 0
540 -541 -542 0
514 -515 0
514 -540 0
-514 515 540 0
-548 326 0
548 -326 0
551 189 0
-551 -189 0
552 191 0
-552 -191 0
-550 551 0
-550 552 0
550 -551 -552 0
553 -193 0
-553 193 0
-549 550 0
-549 553 0
549 -550 -553 0
-547 548 0
-547 549 0
547 -548 -549 0
513 -514 0
513 -547 0
-513 514 547 0
-555 337 0
555 -337 0
-557 543 0
557 -543 0
558 193 0
-558 -193 0
-556 557 0
-556 558 0
556 -557 -558 0
-554 555 0
-554 556 0
554 -555 -556 0
512 -513 0
512 -554 0
-512 513 554 0
-560 346 0
560 -346 0
-561 549 0
561 -549 0
-559 560 0
-559 561 0
559 -560 -561 0
511 -512 0
511 -559 0
-511 512 559 0
-509 510 0
-509 511 0
509 -510 -511 0
267 -268 0
267 -509 0
-267 268 509 0
-563 272 0
563 -272 0
-572 285 0
572 -285 0
-573 296 0
573 -296 0
-571 572 0
-571 573 0
571 -572 -573 0
-575 296 0
575 -296 0
-576 285 0
576 -285 0
-574 575 0
-574 576 0
574 -575 -576 0
570 -571 0
570 -574 0
-570 571 574 0
-578 296 0
578 -296 0
-579 326 0
579 -326 0
-577 578 0
-577 579 0
577 -578 -579 0
569 -570 0
569 -577 0
-569 570 577 0
-581 310 0
581 -310 0
-582 296 0
582 -296 0
-580 581 0
-580 582 0
580 -581 -582 0
568 -569 0
568 -580 0
-568 569 580 0
-584 317 0
584 -317 0
-585 310 0
585 -310 0
-583 584 0
-583 585 0
583 -584 -585 0
567 -568 0
567 -583 0
-567 568 583 0
-587 326 0
587 -326 0
-588 337 0
588 -337 0
-586 587 0
-586 588 0
586 -587 -588 0
566 -567 0
566 -586 0
-566 567 586 0
-590 337 0
590 -337 0
-591 317 0
591 -317 0
-589 590 0
-589 591 0
589 -590 -591 0
565 -566 0
565 -589 0
-565 566 589 0
-593 346 0
593 -346 0
-594 337 0
594 -337 0
-592 593 0
-592 594 0
592 -593 -594 0
564 -565 0
564 -592 0
-564 565 592 0
-562 563 0
-562 564 0
562 -563 -564 0
266 -267 0
266 -562 0
-266 267 562 0
2 -3 0
2 -266 0
-2 3 266 0
-608 299 0
608 -299 0
-609 361 0
609 -361 0
-607 608 0
-607 609 0
607 -608 -609 0
-611 290 0
611 -290 0
-612 368 0
612 -368 0
-610 611 0
-610 612 0
610 -611 -612 0
606 -607 0
606 -610 0
-606 607 610 0
-614 290 0
614 -290 0
-615 373 0
615 -373 0
-613 614 0
-613 615 0
613 -614 -615 0
605 -606 0
605 -613 0
-605 606 613 0
-617 320 0
617 -320 0
-618 361 0
618 -361 0
-616 617 0
-616 618 0
616 -617 -618 0
604 -605 0
604 -616 0
-604 605 616 0
-620 342 0
620 -342 0
-621 383 0
621 -383 0
-619 620 0
-619 621 0
619 -620 -621 0
603 -604 0
603 -619 0
-603 604 619 0
-623 304 0
623 -304 0
-624 390 0
624 -390 0
-622 623 0
-622 624 0
622 -623 -624 0
602 -603 0
602 -622 0
-602 603 622 0
-626 331 0
626 -331 0
-627 397 0
627 -397 0
-625 626 0
-625 627 0
625 -626 -627 0
601 -602 0
601 -625 0
-601 602 625 0
-630 332 0
630 -332 0
631 22 0
-631 -22 0
-629 630 0
-629 631 0
629 -630 -631 0
-632 390 0
632 -390 0
-628 629 0
-628 632 0
628 -629 -632 0
600 -601 0
600 -628 0
-600 601 628 0
-641 368 0
641 -368 0
-642 414 0
642 -414 0
-640 641 0
-640 642 0
640 -641 -642 0
-644 361 0
644 -361 0
-645 421 0
645 -421 0
-643 644 0
-643 645 0
643 -644 -645 0
639 -640 0
639 -643 0
-639 640 643 0
-647 361 0
647 -361 0
-648 426 0
648 -426 0
-646 647 0
-646 648 0
646 -647 -648 0
638 -639 0
638 -646 0
-638 639 646 0
-650 383 0
650 -383 0
-651 414 0
651 -414 0
-649 650 0
-649 651 0
649 -650 -651 0
637 -638 0
637 -649 0
-637 638 649 0
-653 397 0
653 -397 0
-654 436 0
654 -436 0
-652 653 0
-652 654 0
652 -653 -654 0
636 -637 0
636 -652 0
-636 637 652 0
-656 373 0
656 -373 0
-657 443 0
657 -443 0
-655 656 0
-655 657 0
655 -656 -657 0
635 -636 0
635 -655 0
-635 636 655 0
-659 390 0
659 -390 0
-660 450 0
660 -450 0
-658 659 0
-658 660 0
658 -659 -660 0
634 -635 0
634 -658 0
-634 635 658 0
-663 391 0
663 -391 0
664 63 0
-664 -63 0
-662 663 0
-662 664 0
662 -663 -664 0
-665 443 0
665 -443 0
-661 662 0
-661 665 0
661 -662 -665 0
633 -634 0
633 -661 0
-633 634 661 0
-599 600 0
-599 633 0
599 -600 -633 0
-674 421 0
674 -421 0
-675 467 0
675 -467 0
-673 674 0
-673 675 0
673 -674 -675 0
-677 414 0
677 -414 0
-678 474 0
678 -474 0
-676 677 0
-676 678 0
676 -677 -678 0
672 -673 0
672 -676 0
-672 673 676 0
-680 414 0
680 -414 0
-681 479 0
681 -479 0
-679 680 0
-679 681 0
679 -680 -681 0
671 -672 0
671 -679 0
-671 672 679 0
-683 436 0
683 -436 0
-684 467 0
684 -467 0
-682 683 0
-682 684 0
682 -683 -684 0
670 -671 0
670 -682 0
-670 671 682 0
-686 450 0
686 -450 0
-687 489 0
687 -489 0
-685 686 0
-685 687 0
685 -686 -687 0
669 -670 0
669 -685 0
-669 670 685 0
-689 426 0
689 -426 0
-690 496 0
690 -496 0
-688 689 0
-688 690 0
688 -689 -690 0
668 -669 0
668 -688 0
-668 669 688 0
-692 443 0
692 -443 0
-693 503 0
693 -503 0
-691 692 0
-691 693 0
691 -692 -693 0
667 -668 0
667 -691 0
-667 668 691 0
-696 444 0
696 -444 0
697 105 0
-697 -105 0
-695 696 0
-695 697 0
695 -696 -697 0
-698 496 0
698 -496 0
-694 695 0
-694 698 0
694 -695 -698 0
666 -667 0
666 -694 0
-666 667 694 0
-598 599 0
-598 666 0
598 -599 -666 0
-707 474 0
707 -474 0
-708 520 0
708 -520 0
-706 707 0
-706 708 0
706 -707 -708 0
-710 467 0
710 -467 0
-711 527 0
711 -527 0
-709 710 0
-709 711 0
709 -710 -711 0
705 -706 0
705 -709 0
-705 706 709 0
-713 467 0
713 -467 0
-714 532 0
714 -532 0
-712 713 0
-712 714 0
712 -713 -714 0
704 -705 0
704 -712 0
-704 705 712 0
-716 489 0
716 -489 0
-717 520 0
717 -520 0
-715 716 0
-715 717 0
715 -716 -717 0
703 -704 0
703 -715 0
-703 704 715 0
-719 503 0
719 -503 0
-720 542 0
720 -542 0
-718 719 0
-718 720 0
718 -719 -720 0
702 -703 0
702 -718 0
-702 703 718 0
-722 479 0
722 -479 0
-723 549 0
723 -549 0
-721 722 0
-721 723 0
721 -722 -723 0
701 -702 0
701 -721 0
-701 702 721 0
-725 496 0
725 -496 0
-726 556 0
726 -556 0
-724 725 0
-724 726 0
724 -725 -726 0
700 -701 0
700 -724 0
-700 701 724 0
-729 497 0
729 -497 0
730 149 0
-730 -149 0
-728 729 0
-728 730 0
728 -729 -730 0
-731 549 0
731 -549 0
-727 728 0
-727 731 0
727 -728 -731 0
699 -700 0
699 -727 0
-699 700 727 0
-597 598 0
-597 699 0
597 -598 -699 0
-740 527 0
740 -527 0
-741 296 0
741 -296 0
-739 740 0
-739 741 0
739 -740 -741 0
-743 520 0
743 -520 0
-744 285 0
744 -285 0
-742 743 0
-742 744 0
742 -743 -744 0
738 -739 0
738 -742 0
-738 739 742 0
-746 520 0
746 -520 0
-747 326 0
747 -326 0
-745 746 0
-745 747 0
745 -746 -747 0
737 -738 0
737 -745 0
-737 738 745 0
-749 542 0
749 -542 0
-750 296 0
750 -296 0
-748 749 0
-748 750 0
748 -749 -750 0
736 -737 0
736 -748 0
-736 737 748 0
-752 556 0
752 -556 0
-753 310 0
753 -310 0
-751 752 0
-751 753 0
751 -752 -753 0
735 -736 0
735 -751 0
-735 736 751 0
-755 532 0
755 -532 0
-756 337 0
756 -337 0
-754 755 0
-754 756 0
754 -755 -756 0
734 -735 0
734 -754 0
-734 735 754 0
-758 549 0
758 -549 0
-759 317 0
759 -317 0
-757 758 0
-757 759 0
757 -758 -759 0
733 -734 0
733 -757 0
-733 734 757 0
-762 550 0
762 -550 0
763 193 0
-763 -193 0
-761 762 0
-761 763 0
761 -762 -763 0
-764 337 0
764 -337 0
-760 761 0
-760 764 0
760 -761 -764 0
732 -733 0
732 -760 0
-732 733 760 0
-596 597 0
-596 732 0
596 -597 -732 0
-765 629 0
765 -629 0
-595 596 0
-595 765 0
595 -596 -765 0
-1 2 0
-1 595 0
1 -2 -595 0
